p cnf 12 23
12 -10 -4 0
-12 9 4 0
-12 2 -1 0
-11 -10 7 0
11 10 5 0
11 9 3 0
-11 -8 -7 0
-11 7 -2 0
11 -5 3 0
10 -9 6 0
10 -7 4 0
-10 -6 -5 0
-10 -6 -4 0
-10 -4 1 0
10 3 1 0
9 8 -5 0
-9 -7 5 0
-9 5 1 0
-9 -5 -1 0
9 2 1 0
-7 -5 -4 0
-7 4 2 0
7 -3 2 0
